WARNING: for repeatability, setting FPU to use double precision
============================[ Problem Statistics ]=============================
|                                                                             |
|  Number of variables:           100                                         |
|  Number of clauses:             449                                         |
|  Parse time:                   0.00 s                                       |
|  Eliminated clauses:           0.00 Mb                                      |
|  Simplification time:          0.00 s                                       |
|                                                                             |
============================[ Search Statistics ]==============================
| Conflicts |          ORIGINAL         |          LEARNT          | Progress |
|           |    Vars  Clauses Literals |    Limit  Clauses Lit/Cl |          |
===============================================================================
|       100 |      97      440     1328 |      161      100      6 |  0.011 % |
===============================================================================
restarts              : 2
conflicts             : 198            (121996 /sec)
decisions             : 252            (0.00 % random) (155268 /sec)
propagations          : 4462           (2749230 /sec)
conflict literals     : 1279           (15.19 % deleted)
Memory used           : 13.00 MB
CPU time              : 0.001623 s

SATISFIABLE
